&INPUTPP
  prefix = 'gec3' ,
  outdir='./work1/',
  filplot = 'gec3.charge',
  plot_num = 11,
/

&PLOT
/
