&INPUTPP
  prefix = 'sic_gec1' ,
  outdir='./work1/',
  filplot = 'sic_gec1.charge',
  plot_num = 11,
/

&PLOT
/
