&INPUTPP
  prefix = 'sic_gec2' ,
  outdir='./work1/',
  filplot = 'sic_gec2.charge',
  plot_num = 11,
/

&PLOT
/
