&control
calculation = 'bands'
prefix='h2',
tstress = .true.
tprnfor = .true.
pseudo_dir = './pseudo/',
outdir='./work/'
/
&system
ibrav = 4,
a=12.24,
c=20,
nat = 50,
ntyp = 3,
ecutwfc = 30.0,
ecutrho = 120.0,
occupations = 'smearing'
smearing = 'm-p'
degauss = 0.006
input_dft='pbe'
vdw_corr='grimme-d2'
/
&electrons
mixing_beta = 0.7
conv_thr = 1.0d-4
/
ATOMIC_SPECIES
Ge 72.59  Ge.pbe-mt_fhi.UPF
C 12.0107 C.pbe-mt_fhi.UPF
Si 28.0855 Si.pbe-mt_fhi.UPF
ATOMIC_POSITIONS {angstrom}
Ge      0.000000000   0.000000000   3.225
Ge      0.000000000   2.355600000   3.897
Ge     -2.040000000   3.533383647   3.225
Ge     -2.040000000   5.888983647   3.897
Ge     -4.080000000   7.066767294   3.225
Ge     -4.080000000   9.422367294   3.897
Ge      4.080000000   0.000000000   3.225
Ge      4.080000000   2.355600000   3.897
Ge      2.040000000   3.533383647   3.225
Ge      2.040000000   5.888983647   3.897
Ge      0.000000000   7.066767294   3.225
Ge      0.000000000   9.422367294   3.897
Ge      8.160000000   0.000000000   3.225
Ge      8.160000000   2.355600000   3.897
Ge      6.120000000   3.533383647   3.225
Ge      6.120000000   5.888983647   3.897
Ge      4.080000000   7.066767294   3.225
Ge      4.080000000   9.422367294   3.897
C       0.000000000   0.000000000   0.000000000
Si      0.000000000   1.766700000   0.000000000
C      -1.530000000   2.650037736   0.000000000
Si     -1.530000000   4.416737736   0.000000000
C      -3.060000000   5.300075472   0.000000000
Si     -3.060000000   7.066775472   0.000000000
C      -4.590000000   7.950113208   0.000000000
Si     -4.590000000   9.716813208   0.000000000
C       3.060000000   0.000000000   0.000000000
Si      3.060000000   1.766700000   0.000000000
C       1.530000000   2.650037736   0.000000000
Si      1.530000000   4.416737736   0.000000000
C       0.000000000   5.300075472   0.000000000
Si      0.000000000   7.066775472   0.000000000
C      -1.530000000   7.950113208   0.000000000
Si     -1.530000000   9.716813208   0.000000000
C       6.120000000   0.000000000   0.000000000
Si      6.120000000   1.766700000   0.000000000
C       4.590000000   2.650037736   0.000000000
Si      4.590000000   4.416737736   0.000000000
C       3.060000000   5.300075472   0.000000000
Si      3.060000000   7.066775472   0.000000000
C       1.530000000   7.950113208   0.000000000
Si      1.530000000   9.716813208   0.000000000
C       9.180000000   0.000000000   0.000000000
Si      9.180000000   1.766700000   0.000000000
C       7.650000000   2.650037736   0.000000000
Si      7.650000000   4.416737736   0.000000000
C       6.120000000   5.300075472   0.000000000
Si      6.120000000   7.066775472   0.000000000
C       4.590000000   7.950113208   0.000000000
Si      4.590000000   9.716813208   0.000000000

K_POINTS {crystal_b}
4
  0.0000000  0.5000000  0.0000000  20 !M
  0.3333333  0.3333333  0.0000000  20 !k
  0.0000000  0.0000000  0.0000000  20 !G
  0.0000000  0.5000000  0.0000000  20 !M

