&CONTROL
  calculation='scf',
  outdir='./work/',
  prefix='sic_gec1',
  pseudo_dir='./pseudo/',
  verbosity='high',
/

&SYSTEM
  ibrav=4,
  a=6.498, 
  c=25,
  nat=16,
  ntyp=3,
  ecutwfc=40,
  ecutrho=200,
  input_dft='pbe',
  vdw_corr='grimme-d3'
  smearing='mv',
  degauss=0.005d0,
  occupations='smearing', 
  degauss=0.05,
/

&ELECTRONS
  conv_thr=1d-06,
  mixing_beta=0.7d0,
/

ATOMIC_SPECIES
  C 12.010700d0 C.pbe-n-rrkjus_psl.1.0.0.UPF
  Ge 72.640000d0 Ge.pbe-n-kjpaw_psl.1.0.0.UPF
  Si 28.085500d0 Si.pbe-n-rrkjus_psl.1.0.0.UPF
ATOMIC_POSITIONS {angstrom}
 C    0.0000000000    0.0000000000    14.3841518360
Ge    0.0000000000    1.8758965080    14.3841518360
 C   -1.6245740300    2.8138447610    14.3841518360
Ge   -1.6245740300    4.6897412690    14.3841518360
 C    3.2491480610    0.0000000000    14.3841518360
Ge    3.2491480610    1.8758965080    14.3841518360
 C    1.6245740310    2.8138447610    14.3841518360
Ge    1.6245740310    4.6897412690    14.3841518360
 C    0.0000000000    0.0000000000    10.0000000000
Si    0.0000000000    1.8758965080    10.0000000000
 C   -1.6245740300    2.8138447610    10.0000000000
Si   -1.6245740300    4.6897412690    10.0000000000
 C    3.2491480610    0.0000000000    10.0000000000
Si    3.2491480610    1.8758965080    10.0000000000
 C    1.6245740310    2.8138447610    10.0000000000
Si    1.6245740310    4.6897412690    10.0000000000

K_POINTS {automatic}
6 6 1 0 0 0
