&INPUTPP
  prefix='zno_sic_2',
  outdir='./work/',
  filplot='zno_sic_2.elf',
  plot_num=8,
/

&PLOT
  nfile=1
  filepp(1)='zno_sic_2.elf'
  iflag=3
  output_format=5
  e1(1)=1.0, e1(2)=0.0, e1(3)=0.0,
  e2(1)=0.0, e2(2)=1.0, e2(3)=0.0,
  e3(1)=0.0, e3(2)=0.0, e3(3)=1.0,
  x0(1)=0.0, x0(2)=0.0, x0(3)=0.0,
  fileout='zno_sic_2_ELF.xsf'
/
