&INPUTPP
prefix = 'zno_sic_2'
outdir = './work/'
plot_num = 0
filplot  = 'zno_sic_2.charge'
/
&PLOT
/



