&CONTROL
    calculation   = "scf"
    outdir        = "/home/nano3/Desktop/SAKIB/LST2/Si+ZnI2_I/work/"
    prefix        = "ZnI2_pp"
    pseudo_dir    = "/home/nano3/Desktop/SAKIB/Pseudo/"
    restart_mode  = "from_scratch"
    verbosity     = 'high'
/

&SYSTEM
    ibrav       =  4
    a           =  12.22669458
    c           =  25
    nat         =  27
    ntyp        =  2
    input_dft   = 'PBE'
    ecutwfc     =  45
    ecutrho     =  250
    occupations = 'smearing'
    smearing    = 'mp'
    degauss     =  0.005
    vdw_corr    = 'DFT-D'
/

&ELECTRONS
    conv_thr         =  1.00000e-8
    mixing_beta      =  0.7
/

ATOMIC_SPECIES
Zn     65.38       Zn_ONCV_PBE_sr.upf
I     126.9044     I_ONCV_PBE_sr.upf

ATOMIC_POSITIONS (angstrom)
I     2.0377824300    1.1765142400    3.3566858900
Zn    0.0000000000    0.0000000000    5.0000000000
I     0.0000000000    2.3530284700    6.6433141100
I     0.0000000000    4.7060569440    3.3566858900
Zn   -2.0377824300    3.5295427040    5.0000000000
I    -2.0377824300    5.8825711740    6.6433141100
I    -2.0377824300    8.2355996480    3.3566858900
Zn   -4.0755648600    7.0590854080    5.0000000000
I    -4.0755648600    9.4121138780    6.6433141100
I     6.1133472900    1.1765142400    3.3566858900
Zn    4.0755648600    0.0000000000    5.0000000000
I     4.0755648600    2.3530284700    6.6433141100
I     4.0755648600    4.7060569440    3.3566858900
Zn    2.0377824300    3.5295427040    5.0000000000
I     2.0377824300    5.8825711740    6.6433141100
I     2.0377824300    8.2355996480    3.3566858900
Zn    0.0000000000    7.0590854080    5.0000000000
I     0.0000000000    9.4121138780    6.6433141100
I    10.1889121500    1.1765142400    3.3566858900
Zn    8.1511297200    0.0000000000    5.0000000000
I     8.1511297200    2.3530284700    6.6433141100
I     8.1511297200    4.7060569440    3.3566858900
Zn    6.1133472900    3.5295427040    5.0000000000
I     6.1133472900    5.8825711740    6.6433141100
I     6.1133472900    8.2355996480    3.3566858900
Zn    4.0755648600    7.0590854080    5.0000000000
I     4.0755648600    9.4121138780    6.6433141100

K_POINTS {automatic}
12  12  1  0 0 0

