&dos
outdir = './work/',
prefix='gesic2',
fildos='gesic2.dos',
/
