&projwfc
    outdir='./work/'
    prefix = "gesic2"
    ngauss = -1
/
