&CONTROL
  calculation='bands',
  outdir='./work/',
  prefix='sic_gec+23',
  pseudo_dir='./pseudo/',
  verbosity='high',
/

&SYSTEM
  ibrav=4,
  a=6.62796, 
  c=25,
  nat=16,
  ntyp=3,
  ecutwfc=40,
  ecutrho=200,
  input_dft='pbe',
  vdw_corr='grimme-d3'
  smearing='mv',
  degauss=0.005d0,
  occupations='smearing', 
  degauss=0.05,
/

&ELECTRONS
  conv_thr=1d-06,
  mixing_beta=0.7d0,
/

ATOMIC_SPECIES
  C 12.010700d0 C.pbe-n-rrkjus_psl.1.0.0.UPF
  Ge 72.640000d0 Ge.pbe-n-kjpaw_psl.1.0.0.UPF
  Si 28.085500d0 Si.pbe-n-rrkjus_psl.1.0.0.UPF

ATOMIC_POSITIONS {angstrom}
 C   -0.0000005570    1.9133272500   14.3841518360
Ge   -0.0000005570   -0.0000001490   14.3841518360
 C   -1.6569905570    4.7833181180   14.3841518360
Ge   -1.6569905570    2.8699907190   14.3841518360
 C    3.3139794430    1.9133272500   14.3841518360
Ge    3.3139794430   -0.0000001490   14.3841518360
 C    1.6569894430    4.7833181180   14.3841518360
Ge    1.6569894430    2.8699907190   14.3841518360
 C    0.0000000000    0.0000000000   10.0000000000
Si    0.0000000000    1.9133272500   10.0000000000
 C   -1.6569900000    2.8699908680   10.0000000000
Si   -1.6569900000    4.7833181180   10.0000000000
 C    3.3139800000    0.0000000000   10.0000000000
Si    3.3139800000    1.9133272500   10.0000000000
 C    1.6569900000    2.8699908680   10.0000000000
Si    1.6569900000    4.7833181180   10.0000000000

K_POINTS crystal_b
4
gG 10
K  10
M  10
gG 10

