
&CONTROL
  calculation='scf',
  outdir='./work/',
  prefix='sic_gec+22',
  pseudo_dir='./pseudo/',
  verbosity='high',
/

&SYSTEM
  ibrav=4,
  a=6.62796, 
  c=25,
  nat=16,
  ntyp=3,
  ecutwfc=40,
  ecutrho=200,
  input_dft='pbe',
  vdw_corr='grimme-d3'
  smearing='mv',
  degauss=0.005d0,
  occupations='smearing', 
  degauss=0.05,
/

&ELECTRONS
  conv_thr=1d-06,
  mixing_beta=0.7d0,
/

ATOMIC_SPECIES
  C 12.010700d0 C.pbe-n-rrkjus_psl.1.0.0.UPF
  Ge 72.640000d0 Ge.pbe-n-rrkjus_psl.1.0.0.UPF
  Si 28.085500d0 Si.pbe-n-rrkjus_psl.1.0.0.UPF

ATOMIC_POSITIONS {angstrom}
 C    0.8284950000    0.0000000000   14.4372930700
Ge   -0.8284950000    0.9566636230   14.4372930700
 C    4.1424750000    0.0000000000   14.4372930700
Ge    2.4854850000    0.9566636230   14.4372930700
 C    2.4854850000    2.8699908680   14.4372930700
Ge    0.8284950000    3.8266544910   14.4372930700
 C   -0.8284950000    2.8699908680   14.4372930700
Ge   -2.4854850000    3.8266544910   14.4372930700
 C    0.0000000000    0.0000000000   10.0000000000
Si    0.0000000000    1.7843822500   10.0000000000
 C   -1.6569900000    2.8699908680   10.0000000000
Si   -1.6569900000    4.6543731180   10.0000000000
 C    3.3139800000    0.0000000000   10.0000000000
Si    3.3139800000    1.7843822500   10.0000000000
 C    1.6569900000    2.8699908680   10.0000000000
Si    1.6569900000    4.6543731180   10.0000000000

K_POINTS {automatic}
6 6 1 0 0 0

