&CONTROL
    calculation   = "scf"
    outdir        = "/home/nano3/Desktop/RAYID/Ge+SiC/Ge+SiC_I/work/"
    prefix        = "Ge+SiC_I__3.0"
    pseudo_dir    = "/home/nano3/Desktop/RAYID/qe-6.3/bin/pseudo/"
    restart_mode  = "from_scratch"
    verbosity     = 'high'
/

&SYSTEM
    ibrav       =  4
    a           =  12.24
    c           =  20
    nat         =  50
    ntyp        =  3
    input_dft   = 'PBE'
    ecutwfc     =  30
    ecutrho     =  120
    occupations = 'smearing'
    smearing    = 'm-p'
    degauss     =  0.006
    vdw_corr    = 'grimme-d2'
/

&ELECTRONS
    conv_thr         =  1.00000e-4
    mixing_beta      =  0.7
/

ATOMIC_SPECIES
Ge 72.59  Ge.pbe-mt_fhi.UPF
C 12.0107 C.pbe-mt_fhi.UPF
Si 28.0855 Si.pbe-mt_fhi.UPF

ATOMIC_POSITIONS (angstrom)
Ge      0.000000000   0.000000000   3.0
Ge      0.000000000   2.355600000   3.672
Ge     -2.040000000   3.533383647   3.0
Ge     -2.040000000   5.888983647   3.672
Ge     -4.080000000   7.066767294   3.0
Ge     -4.080000000   9.422367294   3.672
Ge      4.080000000   0.000000000   3.0
Ge      4.080000000   2.355600000   3.672
Ge      2.040000000   3.533383647   3.0
Ge      2.040000000   5.888983647   3.672
Ge      0.000000000   7.066767294   3.0
Ge      0.000000000   9.422367294   3.672
Ge      8.160000000   0.000000000   3.0
Ge      8.160000000   2.355600000   3.672
Ge      6.120000000   3.533383647   3.0
Ge      6.120000000   5.888983647   3.672
Ge      4.080000000   7.066767294   3.0
Ge      4.080000000   9.422367294   3.672
Si      0.000000000   0.000000000   0.000000000
C       0.000000000   1.766700000   0.000000000
Si     -1.530000000   2.650037736   0.000000000
C      -1.530000000   4.416737736   0.000000000
Si     -3.060000000   5.300075472   0.000000000
C      -3.060000000   7.066775472   0.000000000
Si     -4.590000000   7.950113208   0.000000000
C      -4.590000000   9.716813208   0.000000000
Si      3.060000000   0.000000000   0.000000000
C       3.060000000   1.766700000   0.000000000
Si      1.530000000   2.650037736   0.000000000
C       1.530000000   4.416737736   0.000000000
Si      0.000000000   5.300075472   0.000000000
C       0.000000000   7.066775472   0.000000000
Si     -1.530000000   7.950113208   0.000000000
C      -1.530000000   9.716813208   0.000000000
Si      6.120000000   0.000000000   0.000000000
C       6.120000000   1.766700000   0.000000000
Si      4.590000000   2.650037736   0.000000000
C       4.590000000   4.416737736   0.000000000
Si      3.060000000   5.300075472   0.000000000
C       3.060000000   7.066775472   0.000000000
Si      1.530000000   7.950113208   0.000000000
C       1.530000000   9.716813208   0.000000000
Si      9.180000000   0.000000000   0.000000000
C       9.180000000   1.766700000   0.000000000
Si      7.650000000   2.650037736   0.000000000
C       7.650000000   4.416737736   0.000000000
Si      6.120000000   5.300075472   0.000000000
C       6.120000000   7.066775472   0.000000000
Si      4.590000000   7.950113208   0.000000000
C       4.590000000   9.716813208   0.000000000

K_POINTS {automatic}
3  3  1  0 0 0

