&BANDS
    outdir  = "/home/nano3/Desktop/RAYID/Ge+SiC/Ge+SiC_I/work/",
    prefix  = "Ge+SiC_I__4.5",
    filband = "/home/nano3/Desktop/RAYID/Ge+SiC/Ge+SiC_I/OUT/Ge+SiC_I__4.5.band",
    lsym    = .true.
/
