&CONTROL
    calculation   = "scf"
    outdir        = "/home/nano3/Desktop/SAKIB/LST2/Si+ZnI2_II/work/"
    prefix        = "Si_II_pp"
    pseudo_dir    = "/home/nano3/Desktop/SAKIB/Pseudo/"
    restart_mode  = "from_scratch"
    verbosity     = 'high'
/

&SYSTEM
    ibrav       =  4
    a           =  12.22669458
    c           =  25
    nat         =  18
    ntyp        =  1
    input_dft   = 'PBE'
    ecutwfc     =  45
    ecutrho     =  250
    occupations = 'smearing'
    smearing    = 'mp'
    degauss     =  0.005
    vdw_corr    = 'DFT-D'
/

&ELECTRONS
    conv_thr         =  1.00000e-8
    mixing_beta      =  0.7
/

ATOMIC_SPECIES
Si     28.0855     Si_ONCV_PBE_sr.upf

ATOMIC_POSITIONS (angstrom)
Si    0.0000000000    2.3530284690    5.5533141100
Si    0.0000000000    0.0000000000    5.8885531520
Si   -2.0377824300    5.8825711730    5.5533141100
Si   -2.0377824300    3.5295427040    5.8885531520
Si   -4.0755648600    9.4121138770    5.5533141100
Si   -4.0755648600    7.0590854080    5.8885531520
Si    4.0755648600    2.3530284690    5.5533141100
Si    4.0755648600    0.0000000000    5.8885531520
Si    2.0377824300    5.8825711730    5.5533141100
Si    2.0377824300    3.5295427040    5.8885531520
Si    0.0000000000    9.4121138770    5.5533141100
Si    0.0000000000    7.0590854080    5.8885531520
Si    8.1511297200    2.3530284690    5.5533141100
Si    8.1511297200    0.0000000000    5.8885531520
Si    6.1133472900    5.8825711730    5.5533141100
Si    6.1133472900    3.5295427040    5.8885531520
Si    4.0755648600    9.4121138770    5.5533141100
Si    4.0755648600    7.0590854080    5.8885531520

K_POINTS {automatic}
12  12  1  0 0 0

