&BANDS
    outdir  = "/home/nano3/Desktop/RAYID/Ge+SiC/Ge+SiC_II/work/",
    prefix  = "Ge+SiC_II__4.5",
    filband = "/home/nano3/Desktop/RAYID/Ge+SiC/Ge+SiC_II/OUT/Ge+SiC_II__4.5.band",
    lsym    = .true.
/
