&BANDS
    outdir  = "/home/nano3/Desktop/RAYID/Ge+SiC/Ge+SiC_III/work/",
    prefix  = "Ge+SiC_III__3.6",
    filband = "/home/nano3/Desktop/RAYID/Ge+SiC/Ge+SiC_III/OUT/Ge+SiC_III__3.6.band",
    lsym    = .true.
/
