&control
calculation = 'scf'
prefix='ge33_cdd',
tstress = .true.
tprnfor = .true.
pseudo_dir = './pseudo/',
outdir='./work/'
/
&system
ibrav = 4,
a=12.24,
c=20,
nat = 18,
ntyp = 1,
ecutwfc = 30.0,
ecutrho = 120.0,
occupations = 'smearing'
smearing = 'm-p'
degauss = 0.006
input_dft='pbe'
vdw_corr='grimme-d2'
/
&electrons
mixing_beta = 0.7
conv_thr = 1.0d-4
/
ATOMIC_SPECIES
Ge 72.59  Ge.pbe-mt_fhi.UPF
C 12.0107 C.pbe-mt_fhi.UPF
Si 28.0855 Si.pbe-mt_fhi.UPF
ATOMIC_POSITIONS {angstrom}
Ge      0.000000000   0.000000000   13.225
Ge      0.000000000   2.355600000   13.897
Ge     -2.040000000   3.533383647   13.225
Ge     -2.040000000   5.888983647   13.897
Ge     -4.080000000   7.066767294   13.225
Ge     -4.080000000   9.422367294   13.897
Ge      4.080000000   0.000000000   13.225
Ge      4.080000000   2.355600000   13.897
Ge      2.040000000   3.533383647   13.225
Ge      2.040000000   5.888983647   13.897
Ge      0.000000000   7.066767294   13.225
Ge      0.000000000   9.422367294   13.897
Ge      8.160000000   0.000000000   13.225
Ge      8.160000000   2.355600000   13.897
Ge      6.120000000   3.533383647   13.225
Ge      6.120000000   5.888983647   13.897
Ge      4.080000000   7.066767294   13.225
Ge      4.080000000   9.422367294   13.897

K_POINTS {automatic}
3 3 1 0 0 0


