&control
calculation = 'scf'
prefix='sic44_cdd',
tstress = .true.
tprnfor = .true.
pseudo_dir = './pseudo/',
outdir='./work/'
/
&system
ibrav = 4,
a=12.24,
c=20,
nat = 32,
ntyp = 3,
ecutwfc = 30.0,
ecutrho = 120.0,
occupations = 'smearing'
smearing = 'm-p'
degauss = 0.006
input_dft='pbe'
vdw_corr='grimme-d2'
/
&electrons
mixing_beta = 0.7
conv_thr = 1.0d-4
/
ATOMIC_SPECIES
Ge 72.59  Ge.pbe-mt_fhi.UPF
C 12.0107 C.pbe-mt_fhi.UPF
Si 28.0855 Si.pbe-mt_fhi.UPF
ATOMIC_POSITIONS {angstrom}
C       0.000000000   0.000000000   10.000000000
Si      0.000000000   1.766700000   10.000000000
C      -1.530000000   2.650037736   10.000000000
Si     -1.530000000   4.416737736   10.000000000
C      -3.060000000   5.300075472   10.000000000
Si     -3.060000000   7.066775472   10.000000000
C      -4.590000000   7.950113208   10.000000000
Si     -4.590000000   9.716813208   10.000000000
C       3.060000000   0.000000000   10.000000000
Si      3.060000000   1.766700000   10.000000000
C       1.530000000   2.650037736   10.000000000
Si      1.530000000   4.416737736   10.000000000
C       0.000000000   5.300075472   10.000000000
Si      0.000000000   7.066775472   10.000000000
C      -1.530000000   7.950113208   10.000000000
Si     -1.530000000   9.716813208   10.000000000
C       6.120000000   0.000000000   10.000000000
Si      6.120000000   1.766700000   10.000000000
C       4.590000000   2.650037736   10.000000000
Si      4.590000000   4.416737736   10.000000000
C       3.060000000   5.300075472   10.000000000
Si      3.060000000   7.066775472   10.000000000
C       1.530000000   7.950113208   10.000000000
Si      1.530000000   9.716813208   10.000000000
C       9.180000000   0.000000000   10.000000000
Si      9.180000000   1.766700000   10.000000000
C       7.650000000   2.650037736   10.000000000
Si      7.650000000   4.416737736   10.000000000
C       6.120000000   5.300075472   10.000000000
Si      6.120000000   7.066775472   10.000000000
C       4.590000000   7.950113208   10.000000000
Si      4.590000000   9.716813208   10.000000000

K_POINTS {automatic}
3 3 1 0 0 0


