&CONTROL
  calculation='scf',
  outdir='./work/',
  prefix='sic_gec_21',
  pseudo_dir='./pseudo/',
  verbosity='high',
/

&SYSTEM
  ibrav=4,
  a=6.36804, 
  c=25,
  nat=16,
  ntyp=3,
  ecutwfc=40,
  ecutrho=200,
  input_dft='pbe',
  vdw_corr='grimme-d3'
  smearing='mv',
  degauss=0.005d0,
  occupations='smearing', 
  degauss=0.05,
/

&ELECTRONS
  conv_thr=1d-06,
  mixing_beta=0.7d0,
/

ATOMIC_SPECIES
  C 12.010700d0 C.pbe-n-rrkjus_psl.1.0.0.UPF
  Ge 72.640000d0 Ge.pbe-n-rrkjus_psl.1.0.0.UPF
  Si 28.085500d0 Si.pbe-n-rrkjus_psl.1.0.0.UPF

ATOMIC_POSITIONS {angstrom}
 C    0.0000000000    0.0000000000   14.3841518360
Ge    0.0000000000    1.7843822500   14.3841518360
 C   -1.5920100000    2.7574422060   14.3841518360
Ge   -1.5920100000    4.5418244560   14.3841518360
 C    3.1840200000    0.0000000000   14.3841518360
Ge    3.1840200000    1.7843822500   14.3841518360
 C    1.5920100000    2.7574422060   14.3841518360
Ge    1.5920100000    4.5418244560   14.3841518360
 C    1.5920100000    2.7574422060   10.0000000000
Si    1.5920100000    4.5418244560   10.0000000000
 C    0.0000000000    0.0000000000   10.0000000000
Si    0.0000000000    1.7843822500   10.0000000000
 C   -1.5920100000    2.7574422060   10.0000000000
Si   -1.5920100000    4.5418244560   10.0000000000
 C    3.1840200000    0.0000000000   10.0000000000
Si    3.1840200000    1.7843822500   10.0000000000

K_POINTS {automatic}
6 6 1 0 0 0

