&INPUTPP
  prefix = 'sic_gec_22' ,
  outdir='./work/',
  filplot = 'sic_gec_22_CB.charge',
  plot_num = 7,
  kpoint=1,
  kband=33,
/

&PLOT
	iflag		= 3
	output_format = 6
	fileout		= "sic_gec_22_CB.cube"
/
 
