&INPUTPP
  prefix = 'sic_gec_23' ,
  outdir='./work/',
  filplot = 'sic_gec_23_VB.charge',
  plot_num = 7,
  kpoint=1,
  kband=32,
/

&PLOT
	iflag		= 3
	output_format = 6
	fileout		= "sic_gec_23_VB.cube"
/
 
