&INPUTPP
	prefix = 'zno_sic_1_pot'
	outdir = './work/'
	plot_num = 11
	filplot  = 'zno_sic_1.pot'
/
&plot
/

