&INPUTPP
  prefix = 'sic_gec3' ,
  outdir='./work1/',
  filplot = 'sic_gec3.charge',
  plot_num = 11,
/

&PLOT
/
