&INPUTPP
  prefix = 'gec1' ,
  outdir='./work1/',
  filplot = 'gec1.charge',
  plot_num = 11,
/

&PLOT
/
