&INPUTPP
  prefix = 'gec2' ,
  outdir='./work1/',
  filplot = 'gec2.charge',
  plot_num = 11,
/

&PLOT
/
