&INPUTPP
  prefix = 'sic2' ,
  outdir='./work1/'
  filplot = 'sic2.charge',
  plot_num = 11,
/

&PLOT
/
